55
1 0 4
2 0 4
2 1 2
3 2 10
4 1 2
5 0 6
5 2 4
6 0 2
6 1 10
6 3 5
7 1 5
7 4 4
7 6 8
8 1 5
8 2 7
8 6 4
9 7 2
9 8 6
10 0 8
10 1 6
10 2 8
10 5 6
10 7 9
10 9 1
11 2 1
11 4 3
11 5 3
11 7 1
11 10 6
12 0 4
12 3 8
12 4 6
12 5 5
12 6 2
12 7 7
12 8 2
13 3 8
13 4 1
13 5 7
13 6 3
13 7 10
13 11 7
13 12 5
14 1 1
14 2 5
14 3 7
14 4 4
14 6 5
14 7 5
14 8 3
14 9 7
14 10 4
14 11 6
15 0 3
15 4 6
15 6 9
15 8 5
16 0 7
16 1 5
16 2 2
16 5 9
16 7 1
16 8 8
16 10 2
16 15 10
17 1 6
17 4 1
17 6 3
17 7 8
17 8 7
17 9 7
17 10 2
17 13 2
17 15 6
18 1 1
18 4 3
18 8 10
18 9 2
18 10 3
18 11 9
18 12 10
18 15 1
18 16 6
19 0 8
19 2 6
19 3 5
19 4 2
19 7 6
19 10 8
19 13 6
20 0 8
20 2 6
20 3 5
20 4 5
20 7 8
20 8 9
20 17 1
20 18 10
21 3 10
21 4 7
21 7 8
21 9 9
21 13 5
21 14 3
21 16 1
21 17 8
21 20 8
22 4 8
22 6 9
22 8 4
22 10 1
22 12 4
22 17 7
22 21 9
23 0 2
23 1 2
23 2 3
23 7 6
23 8 10
23 10 6
23 11 5
23 13 7
23 15 7
23 16 10
23 18 8
23 19 6
24 1 1
24 2 10
24 3 2
24 4 4
24 5 5
24 6 5
24 8 5
24 12 8
24 15 5
24 16 8
24 17 6
24 20 9
24 21 7
24 23 9
25 3 4
25 5 7
25 7 1
25 9 9
25 11 3
25 13 3
25 14 8
25 15 3
25 16 8
25 17 8
25 18 9
25 19 7
25 21 6
25 22 7
25 23 7
25 24 5
26 1 5
26 2 1
26 3 8
26 6 9
26 7 5
26 9 5
26 10 2
26 11 7
26 12 2
26 14 2
26 15 8
26 16 2
26 19 9
26 21 10
26 22 1
26 24 6
27 2 6
27 3 4
27 6 8
27 9 5
27 10 9
27 11 9
27 12 1
27 13 8
27 15 7
27 18 5
27 20 7
27 21 7
28 0 3
28 1 9
28 2 7
28 3 7
28 9 10
28 13 9
28 16 9
28 17 8
28 19 2
28 21 9
28 23 9
28 27 6
29 5 2
29 6 10
29 8 4
29 10 4
29 11 9
29 13 5
29 15 8
29 17 8
29 20 5
29 22 8
29 24 6
29 25 2
29 27 5
29 28 1
30 0 9
30 1 9
30 3 9
30 5 7
30 7 5
30 9 9
30 10 2
30 11 5
30 12 4
30 15 9
30 16 4
30 20 9
30 21 8
30 22 3
30 24 6
30 25 8
30 26 8
30 27 5
30 28 7
31 0 9
31 2 7
31 4 8
31 5 3
31 13 6
31 14 7
31 17 9
31 18 4
31 19 1
31 20 5
31 22 4
31 23 3
31 24 8
31 25 9
31 27 6
31 28 7
31 29 2
31 30 6
32 1 7
32 2 1
32 7 8
32 8 4
32 9 6
32 11 8
32 12 8
32 15 5
32 16 6
32 17 5
32 18 5
32 20 8
32 22 3
32 25 10
32 26 5
32 30 8
32 31 7
33 0 6
33 1 7
33 2 3
33 5 3
33 6 2
33 9 2
33 12 5
33 13 3
33 14 4
33 15 3
33 18 6
33 19 5
33 21 3
33 24 4
33 25 10
33 28 3
33 29 10
33 30 4
33 31 3
33 32 5
34 0 5
34 3 9
34 7 3
34 8 2
34 9 2
34 11 1
34 12 3
34 13 4
34 14 2
34 15 10
34 17 7
34 18 1
34 19 4
34 21 9
34 22 5
34 23 4
34 25 7
34 27 9
34 33 6
35 1 2
35 2 2
35 3 8
35 6 10
35 7 8
35 9 4
35 11 7
35 12 4
35 17 3
35 19 1
35 20 8
35 22 5
35 24 4
35 25 10
35 26 8
35 30 4
35 31 6
36 1 3
36 6 3
36 9 9
36 10 1
36 11 2
36 15 10
36 18 7
36 19 7
36 21 1
36 24 6
36 26 1
36 27 7
36 32 8
36 33 6
36 34 2
36 35 3
37 1 1
37 2 5
37 6 3
37 8 2
37 9 7
37 14 7
37 17 4
37 19 9
37 21 8
37 22 5
37 23 10
37 25 6
37 28 5
37 31 3
37 32 1
37 33 10
37 34 9
37 35 10
38 0 6
38 1 10
38 4 4
38 5 6
38 6 8
38 8 8
38 11 7
38 12 5
38 13 10
38 16 9
38 19 6
38 20 1
38 22 5
38 24 1
38 25 1
38 29 3
38 32 4
38 33 1
38 34 1
38 36 2
38 37 2
39 3 3
39 4 1
39 5 4
39 6 7
39 7 3
39 9 7
39 12 7
39 13 1
39 14 4
39 15 7
39 17 8
39 18 4
39 19 6
39 20 9
39 21 2
39 22 9
39 23 4
39 25 1
39 26 9
39 27 7
39 29 9
39 30 1
39 31 8
39 32 5
39 33 1
39 34 7
39 35 9
40 1 7
40 4 9
40 7 5
40 9 3
40 11 7
40 12 1
40 13 3
40 15 5
40 16 4
40 23 2
40 24 5
40 25 5
40 27 8
40 29 6
40 30 7
40 34 4
41 2 10
41 6 6
41 7 1
41 10 10
41 11 5
41 12 9
41 17 5
41 18 9
41 19 6
41 21 5
41 22 2
41 23 6
41 24 1
41 27 7
41 28 2
41 29 8
41 32 2
41 34 9
41 35 10
41 36 4
41 37 2
41 40 6
42 1 3
42 4 10
42 5 6
42 7 6
42 12 3
42 13 2
42 14 5
42 16 9
42 17 8
42 18 8
42 21 5
42 22 6
42 24 10
42 25 10
42 27 10
42 30 1
42 34 3
42 36 2
42 39 3
42 40 7
43 0 1
43 1 5
43 2 7
43 3 6
43 6 9
43 8 7
43 9 10
43 11 8
43 13 3
43 21 9
43 25 7
43 26 8
43 27 8
43 28 10
43 29 4
43 31 9
43 36 8
43 37 1
43 39 1
43 40 1
43 41 9
44 5 1
44 8 10
44 9 5
44 10 6
44 15 6
44 16 9
44 18 3
44 19 7
44 20 9
44 24 4
44 30 10
44 32 9
44 33 9
44 34 5
44 36 9
44 41 5
44 42 5
45 0 2
45 5 4
45 6 10
45 7 9
45 14 7
45 17 4
45 20 1
45 24 1
45 26 7
45 27 2
45 29 4
45 34 3
45 38 4
45 39 6
45 40 2
46 1 7
46 3 7
46 5 6
46 6 10
46 7 2
46 8 6
46 9 9
46 10 8
46 12 4
46 15 7
46 16 1
46 17 3
46 19 10
46 20 9
46 28 10
46 30 10
46 35 1
46 36 4
46 37 10
46 43 2
47 2 5
47 3 2
47 7 2
47 8 2
47 9 2
47 10 7
47 12 2
47 13 9
47 14 3
47 15 2
47 18 9
47 21 10
47 24 8
47 25 10
47 26 4
47 27 2
47 29 1
47 30 1
47 32 8
47 33 6
47 35 2
47 36 7
47 37 3
47 38 4
47 39 3
47 41 1
47 42 9
47 43 6
47 44 4
47 45 4
48 0 2
48 2 4
48 5 5
48 6 10
48 7 9
48 9 8
48 10 6
48 11 8
48 12 10
48 13 8
48 14 7
48 15 9
48 16 2
48 17 7
48 18 9
48 19 8
48 22 7
48 24 5
48 25 10
48 26 9
48 27 9
48 29 4
48 31 5
48 32 5
48 33 7
48 34 9
48 36 6
48 38 7
48 39 2
48 44 1
48 45 4
49 0 3
49 2 10
49 4 3
49 7 1
49 8 6
49 10 3
49 11 9
49 12 7
49 15 5
49 16 5
49 17 6
49 18 8
49 19 2
49 20 8
49 22 9
49 24 9
49 25 4
49 28 2
49 29 7
49 31 6
49 32 7
49 36 3
49 37 2
49 38 9
49 39 2
49 41 1
49 43 4
49 46 5
49 48 2
50 1 3
50 2 4
50 5 6
50 6 10
50 8 7
50 9 7
50 11 8
50 13 8
50 15 10
50 17 1
50 18 3
50 19 4
50 21 10
50 22 2
50 25 4
50 26 6
50 28 3
50 29 4
50 30 8
50 31 1
50 34 8
50 35 8
50 36 2
50 37 4
50 38 10
50 40 3
50 42 6
50 43 5
50 44 9
50 46 7
50 47 5
50 49 3
51 1 1
51 3 5
51 4 10
51 9 10
51 10 2
51 13 10
51 14 8
51 17 10
51 18 3
51 19 10
51 21 2
51 23 1
51 27 2
51 29 3
51 30 5
51 36 3
51 39 6
51 40 8
51 41 10
51 43 3
51 44 4
51 47 10
51 48 8
51 49 2
52 2 3
52 4 4
52 5 2
52 7 1
52 11 2
52 12 6
52 13 10
52 17 3
52 18 5
52 20 10
52 21 8
52 22 5
52 25 4
52 28 3
52 29 2
52 32 5
52 33 4
52 35 1
52 36 10
52 37 1
52 42 3
52 43 1
52 44 2
52 46 5
52 48 7
52 50 1
53 2 5
53 5 4
53 6 10
53 7 5
53 8 7
53 10 10
53 11 9
53 13 9
53 15 10
53 17 6
53 19 1
53 20 3
53 25 8
53 27 2
53 30 8
53 32 10
53 33 10
53 34 9
53 35 3
53 37 5
53 41 1
53 42 10
53 46 3
53 48 2
53 50 1
53 51 8
53 52 6
54 0 5
54 1 8
54 4 4
54 8 2
54 9 3
54 10 1
54 15 1
54 16 7
54 17 7
54 18 1
54 19 8
54 20 7
54 23 1
54 27 4
54 28 3
54 29 10
54 30 4
54 35 7
54 38 5
54 41 8
54 46 2
54 47 7
54 48 8
54 50 5
54 51 4
54 53 4
